1880.33
0 27 57 60 30 40 0
0 34 54 53 31 26 0
0 15 20 70 69 5 68 6 0
0 18 72 66 8 52 71 0
0 9 55 3 36 61 75 0
0 74 28 50 44 17 0
0 21 62 42 63 49 33 0
0 14 59 37 67 0
0 38 10 58 24 0
0 65 39 1 41 22 29 51 0
0 25 11 47 4 0
0 16 23 73 45 19 7 12 0
0 64 48 13 35 46 0
0 2 43 56 32 0
